p edge 150 3353
e 1 6
e 1 7
e 1 8
e 1 9
e 1 11
e 1 12
e 1 15
e 1 16
e 1 18
e 1 22
e 1 23
e 1 27
e 1 28
e 1 29
e 1 30
e 1 34
e 1 35
e 1 38
e 1 42
e 1 44
e 1 51
e 1 52
e 1 53
e 1 56
e 1 60
e 1 62
e 1 63
e 1 66
e 1 70
e 1 73
e 1 74
e 1 76
e 1 78
e 1 81
e 1 84
e 1 87
e 1 91
e 1 92
e 1 97
e 1 100
e 1 110
e 1 115
e 1 116
e 1 117
e 1 119
e 1 122
e 1 129
e 1 130
e 1 132
e 1 133
e 1 134
e 1 135
e 1 139
e 1 143
e 1 147
e 1 148
e 2 3
e 2 8
e 2 9
e 2 11
e 2 20
e 2 23
e 2 28
e 2 29
e 2 36
e 2 38
e 2 39
e 2 40
e 2 41
e 2 51
e 2 56
e 2 61
e 2 63
e 2 68
e 2 73
e 2 74
e 2 76
e 2 77
e 2 78
e 2 80
e 2 86
e 2 89
e 2 90
e 2 93
e 2 98
e 2 101
e 2 102
e 2 106
e 2 107
e 2 111
e 2 113
e 2 115
e 2 117
e 2 119
e 2 124
e 2 127
e 2 134
e 2 140
e 2 144
e 2 147
e 3 4
e 3 6
e 3 17
e 3 18
e 3 20
e 3 21
e 3 22
e 3 23
e 3 27
e 3 28
e 3 34
e 3 39
e 3 43
e 3 49
e 3 50
e 3 62
e 3 64
e 3 65
e 3 68
e 3 70
e 3 76
e 3 79
e 3 81
e 3 83
e 3 85
e 3 88
e 3 96
e 3 97
e 3 103
e 3 106
e 3 116
e 3 118
e 3 120
e 3 121
e 3 122
e 3 124
e 3 128
e 3 130
e 3 132
e 3 134
e 3 135
e 3 141
e 3 143
e 3 144
e 3 145
e 3 147
e 4 6
e 4 9
e 4 12
e 4 16
e 4 17
e 4 19
e 4 21
e 4 24
e 4 28
e 4 29
e 4 32
e 4 33
e 4 34
e 4 41
e 4 44
e 4 54
e 4 60
e 4 67
e 4 69
e 4 72
e 4 76
e 4 79
e 4 80
e 4 82
e 4 86
e 4 89
e 4 93
e 4 95
e 4 100
e 4 101
e 4 103
e 4 105
e 4 107
e 4 108
e 4 109
e 4 117
e 4 122
e 4 123
e 4 124
e 4 128
e 4 132
e 4 136
e 4 144
e 4 145
e 4 147
e 5 6
e 5 9
e 5 11
e 5 14
e 5 15
e 5 17
e 5 24
e 5 27
e 5 28
e 5 30
e 5 32
e 5 36
e 5 50
e 5 52
e 5 56
e 5 61
e 5 62
e 5 65
e 5 73
e 5 74
e 5 83
e 5 85
e 5 87
e 5 93
e 5 100
e 5 102
e 5 104
e 5 107
e 5 112
e 5 117
e 5 120
e 5 124
e 5 126
e 5 134
e 5 138
e 5 144
e 5 150
e 6 8
e 6 14
e 6 17
e 6 19
e 6 21
e 6 24
e 6 26
e 6 29
e 6 34
e 6 46
e 6 48
e 6 50
e 6 53
e 6 56
e 6 57
e 6 63
e 6 64
e 6 76
e 6 83
e 6 84
e 6 105
e 6 108
e 6 113
e 6 114
e 6 120
e 6 121
e 6 129
e 6 130
e 6 133
e 6 140
e 6 142
e 6 147
e 6 149
e 6 150
e 7 8
e 7 14
e 7 16
e 7 19
e 7 20
e 7 22
e 7 27
e 7 42
e 7 43
e 7 45
e 7 50
e 7 53
e 7 54
e 7 59
e 7 61
e 7 62
e 7 64
e 7 65
e 7 70
e 7 72
e 7 76
e 7 83
e 7 86
e 7 87
e 7 88
e 7 94
e 7 95
e 7 99
e 7 104
e 7 105
e 7 107
e 7 110
e 7 115
e 7 117
e 7 126
e 7 127
e 7 135
e 7 137
e 7 139
e 7 141
e 7 144
e 7 146
e 8 9
e 8 11
e 8 14
e 8 16
e 8 22
e 8 27
e 8 28
e 8 37
e 8 41
e 8 43
e 8 56
e 8 69
e 8 72
e 8 74
e 8 84
e 8 94
e 8 100
e 8 104
e 8 109
e 8 112
e 8 113
e 8 115
e 8 125
e 8 126
e 8 128
e 8 136
e 8 139
e 8 144
e 8 146
e 8 147
e 8 148
e 8 149
e 8 150
e 9 12
e 9 14
e 9 18
e 9 19
e 9 28
e 9 29
e 9 34
e 9 37
e 9 41
e 9 45
e 9 56
e 9 62
e 9 69
e 9 76
e 9 80
e 9 82
e 9 87
e 9 91
e 9 101
e 9 102
e 9 103
e 9 108
e 9 109
e 9 113
e 9 123
e 9 125
e 9 126
e 9 128
e 9 129
e 9 131
e 9 139
e 9 141
e 9 143
e 10 13
e 10 17
e 10 19
e 10 20
e 10 21
e 10 22
e 10 24
e 10 25
e 10 27
e 10 29
e 10 31
e 10 32
e 10 34
e 10 41
e 10 42
e 10 43
e 10 47
e 10 51
e 10 54
e 10 56
e 10 57
e 10 61
e 10 63
e 10 69
e 10 76
e 10 77
e 10 82
e 10 85
e 10 89
e 10 91
e 10 94
e 10 96
e 10 97
e 10 99
e 10 104
e 10 109
e 10 111
e 10 114
e 10 115
e 10 119
e 10 121
e 10 125
e 10 127
e 10 129
e 10 130
e 10 132
e 10 135
e 10 136
e 10 137
e 10 138
e 10 146
e 10 149
e 11 12
e 11 17
e 11 18
e 11 21
e 11 32
e 11 33
e 11 39
e 11 44
e 11 47
e 11 48
e 11 50
e 11 51
e 11 53
e 11 59
e 11 61
e 11 63
e 11 65
e 11 71
e 11 74
e 11 83
e 11 84
e 11 86
e 11 90
e 11 96
e 11 97
e 11 98
e 11 101
e 11 102
e 11 103
e 11 105
e 11 111
e 11 114
e 11 116
e 11 120
e 11 122
e 11 127
e 11 130
e 11 136
e 11 137
e 11 142
e 11 143
e 11 150
e 12 16
e 12 17
e 12 18
e 12 23
e 12 31
e 12 36
e 12 45
e 12 47
e 12 50
e 12 52
e 12 55
e 12 60
e 12 61
e 12 62
e 12 68
e 12 72
e 12 75
e 12 77
e 12 81
e 12 84
e 12 85
e 12 96
e 12 97
e 12 102
e 12 113
e 12 118
e 12 121
e 12 127
e 12 128
e 12 130
e 12 136
e 12 137
e 12 147
e 12 148
e 13 24
e 13 25
e 13 26
e 13 29
e 13 30
e 13 42
e 13 44
e 13 45
e 13 47
e 13 50
e 13 51
e 13 52
e 13 57
e 13 60
e 13 62
e 13 64
e 13 66
e 13 67
e 13 76
e 13 78
e 13 79
e 13 86
e 13 87
e 13 89
e 13 90
e 13 95
e 13 96
e 13 101
e 13 102
e 13 109
e 13 113
e 13 115
e 13 118
e 13 119
e 13 120
e 13 122
e 13 124
e 13 125
e 13 130
e 13 131
e 13 137
e 13 139
e 13 147
e 14 17
e 14 19
e 14 21
e 14 23
e 14 26
e 14 27
e 14 31
e 14 32
e 14 35
e 14 37
e 14 40
e 14 45
e 14 55
e 14 58
e 14 59
e 14 63
e 14 66
e 14 67
e 14 80
e 14 81
e 14 94
e 14 96
e 14 100
e 14 103
e 14 106
e 14 113
e 14 115
e 14 116
e 14 121
e 14 123
e 14 125
e 14 126
e 14 146
e 14 148
e 14 150
e 15 19
e 15 22
e 15 27
e 15 28
e 15 35
e 15 44
e 15 45
e 15 51
e 15 59
e 15 60
e 15 66
e 15 68
e 15 71
e 15 76
e 15 77
e 15 78
e 15 80
e 15 93
e 15 95
e 15 98
e 15 107
e 15 109
e 15 112
e 15 113
e 15 114
e 15 115
e 15 116
e 15 118
e 15 119
e 15 121
e 15 129
e 15 133
e 15 139
e 15 144
e 15 145
e 15 146
e 16 32
e 16 35
e 16 39
e 16 44
e 16 50
e 16 56
e 16 59
e 16 66
e 16 69
e 16 72
e 16 77
e 16 78
e 16 84
e 16 89
e 16 104
e 16 108
e 16 112
e 16 114
e 16 117
e 16 119
e 16 120
e 16 123
e 16 127
e 16 134
e 16 135
e 16 139
e 16 140
e 16 142
e 16 145
e 16 146
e 16 148
e 17 20
e 17 24
e 17 36
e 17 40
e 17 41
e 17 45
e 17 51
e 17 55
e 17 58
e 17 69
e 17 74
e 17 79
e 17 80
e 17 82
e 17 87
e 17 89
e 17 91
e 17 95
e 17 98
e 17 101
e 17 103
e 17 107
e 17 110
e 17 111
e 17 117
e 17 119
e 17 123
e 17 124
e 17 127
e 17 130
e 17 131
e 17 132
e 17 138
e 17 146
e 17 148
e 18 19
e 18 22
e 18 23
e 18 30
e 18 33
e 18 34
e 18 37
e 18 40
e 18 41
e 18 53
e 18 56
e 18 63
e 18 66
e 18 75
e 18 76
e 18 79
e 18 80
e 18 81
e 18 82
e 18 84
e 18 86
e 18 87
e 18 93
e 18 95
e 18 97
e 18 98
e 18 100
e 18 104
e 18 108
e 18 113
e 18 119
e 18 121
e 18 122
e 18 124
e 18 136
e 18 138
e 18 143
e 18 147
e 19 22
e 19 29
e 19 34
e 19 40
e 19 42
e 19 49
e 19 52
e 19 55
e 19 56
e 19 57
e 19 59
e 19 60
e 19 65
e 19 66
e 19 78
e 19 83
e 19 84
e 19 95
e 19 97
e 19 102
e 19 103
e 19 107
e 19 108
e 19 110
e 19 111
e 19 116
e 19 118
e 19 120
e 19 121
e 19 122
e 19 125
e 19 126
e 19 131
e 19 141
e 19 149
e 20 21
e 20 22
e 20 23
e 20 30
e 20 35
e 20 39
e 20 43
e 20 48
e 20 54
e 20 56
e 20 62
e 20 63
e 20 66
e 20 70
e 20 73
e 20 76
e 20 79
e 20 80
e 20 81
e 20 82
e 20 86
e 20 88
e 20 92
e 20 97
e 20 99
e 20 100
e 20 102
e 20 106
e 20 107
e 20 117
e 20 118
e 20 122
e 20 123
e 20 132
e 20 143
e 20 144
e 20 146
e 21 23
e 21 26
e 21 28
e 21 30
e 21 37
e 21 48
e 21 50
e 21 56
e 21 57
e 21 58
e 21 63
e 21 66
e 21 73
e 21 76
e 21 80
e 21 81
e 21 94
e 21 98
e 21 102
e 21 103
e 21 104
e 21 108
e 21 111
e 21 112
e 21 119
e 21 120
e 21 121
e 21 131
e 21 138
e 21 145
e 21 148
e 22 31
e 22 32
e 22 37
e 22 41
e 22 44
e 22 48
e 22 54
e 22 58
e 22 67
e 22 81
e 22 82
e 22 87
e 22 90
e 22 91
e 22 99
e 22 106
e 22 107
e 22 108
e 22 112
e 22 115
e 22 119
e 22 122
e 22 124
e 22 127
e 22 130
e 22 131
e 22 137
e 22 138
e 22 141
e 22 144
e 22 145
e 22 150
e 23 24
e 23 32
e 23 33
e 23 34
e 23 36
e 23 37
e 23 38
e 23 45
e 23 48
e 23 49
e 23 50
e 23 55
e 23 58
e 23 61
e 23 62
e 23 66
e 23 71
e 23 73
e 23 77
e 23 79
e 23 83
e 23 84
e 23 90
e 23 92
e 23 96
e 23 97
e 23 102
e 23 104
e 23 108
e 23 109
e 23 111
e 23 112
e 23 113
e 23 117
e 23 119
e 23 126
e 23 128
e 23 133
e 23 135
e 23 142
e 23 146
e 24 27
e 24 28
e 24 30
e 24 31
e 24 35
e 24 42
e 24 44
e 24 45
e 24 46
e 24 49
e 24 51
e 24 59
e 24 67
e 24 73
e 24 74
e 24 75
e 24 78
e 24 79
e 24 83
e 24 84
e 24 85
e 24 89
e 24 91
e 24 93
e 24 96
e 24 98
e 24 108
e 24 112
e 24 113
e 24 120
e 24 125
e 24 126
e 24 127
e 24 130
e 24 132
e 24 136
e 24 139
e 24 141
e 24 142
e 24 145
e 24 148
e 25 32
e 25 34
e 25 37
e 25 42
e 25 44
e 25 48
e 25 54
e 25 56
e 25 57
e 25 61
e 25 64
e 25 67
e 25 71
e 25 75
e 25 79
e 25 80
e 25 84
e 25 89
e 25 93
e 25 97
e 25 101
e 25 109
e 25 112
e 25 116
e 25 117
e 25 118
e 25 120
e 25 122
e 25 124
e 25 127
e 25 130
e 25 135
e 25 137
e 25 139
e 25 141
e 25 142
e 25 146
e 25 148
e 25 150
e 26 35
e 26 36
e 26 38
e 26 42
e 26 43
e 26 45
e 26 46
e 26 50
e 26 52
e 26 59
e 26 66
e 26 71
e 26 74
e 26 84
e 26 87
e 26 88
e 26 89
e 26 92
e 26 95
e 26 101
e 26 104
e 26 105
e 26 106
e 26 107
e 26 108
e 26 116
e 26 120
e 26 122
e 26 123
e 26 126
e 26 131
e 26 133
e 26 134
e 26 136
e 26 139
e 26 140
e 26 145
e 26 146
e 26 147
e 27 28
e 27 29
e 27 30
e 27 35
e 27 36
e 27 38
e 27 44
e 27 46
e 27 57
e 27 60
e 27 61
e 27 62
e 27 63
e 27 69
e 27 78
e 27 80
e 27 82
e 27 83
e 27 88
e 27 89
e 27 92
e 27 95
e 27 96
e 27 99
e 27 101
e 27 106
e 27 107
e 27 108
e 27 110
e 27 112
e 27 114
e 27 118
e 27 122
e 27 125
e 27 130
e 27 131
e 27 134
e 27 140
e 27 141
e 27 142
e 27 143
e 27 145
e 27 146
e 27 148
e 28 32
e 28 35
e 28 36
e 28 45
e 28 47
e 28 48
e 28 53
e 28 58
e 28 63
e 28 76
e 28 78
e 28 92
e 28 93
e 28 97
e 28 98
e 28 101
e 28 104
e 28 108
e 28 114
e 28 118
e 28 123
e 28 124
e 28 129
e 28 131
e 28 133
e 28 135
e 28 139
e 28 145
e 28 150
e 29 32
e 29 36
e 29 37
e 29 38
e 29 52
e 29 55
e 29 56
e 29 60
e 29 61
e 29 64
e 29 68
e 29 73
e 29 76
e 29 80
e 29 84
e 29 90
e 29 91
e 29 100
e 29 101
e 29 103
e 29 108
e 29 115
e 29 117
e 29 127
e 29 128
e 29 129
e 29 133
e 29 134
e 29 136
e 29 137
e 29 138
e 29 139
e 29 142
e 29 143
e 29 144
e 29 145
e 29 146
e 29 149
e 30 34
e 30 36
e 30 40
e 30 42
e 30 43
e 30 46
e 30 50
e 30 51
e 30 53
e 30 54
e 30 57
e 30 61
e 30 62
e 30 64
e 30 67
e 30 71
e 30 72
e 30 77
e 30 78
e 30 80
e 30 82
e 30 83
e 30 90
e 30 93
e 30 94
e 30 96
e 30 99
e 30 102
e 30 103
e 30 105
e 30 107
e 30 110
e 30 111
e 30 114
e 30 117
e 30 125
e 30 127
e 30 130
e 30 134
e 30 143
e 30 148
e 31 47
e 31 48
e 31 51
e 31 53
e 31 58
e 31 60
e 31 63
e 31 64
e 31 69
e 31 72
e 31 76
e 31 80
e 31 84
e 31 89
e 31 92
e 31 93
e 31 94
e 31 104
e 31 108
e 31 112
e 31 115
e 31 116
e 31 117
e 31 121
e 31 122
e 31 123
e 31 129
e 31 130
e 31 132
e 31 137
e 31 139
e 31 145
e 31 146
e 31 147
e 31 148
e 31 149
e 32 35
e 32 37
e 32 45
e 32 47
e 32 57
e 32 59
e 32 61
e 32 67
e 32 68
e 32 71
e 32 78
e 32 82
e 32 86
e 32 93
e 32 99
e 32 100
e 32 102
e 32 106
e 32 112
e 32 113
e 32 117
e 32 118
e 32 125
e 32 126
e 32 130
e 32 132
e 32 134
e 32 135
e 32 137
e 32 143
e 32 149
e 32 150
e 33 35
e 33 36
e 33 40
e 33 43
e 33 46
e 33 48
e 33 50
e 33 54
e 33 58
e 33 60
e 33 65
e 33 66
e 33 68
e 33 69
e 33 70
e 33 71
e 33 76
e 33 77
e 33 79
e 33 80
e 33 85
e 33 86
e 33 87
e 33 88
e 33 95
e 33 97
e 33 106
e 33 109
e 33 111
e 33 113
e 33 114
e 33 115
e 33 116
e 33 117
e 33 118
e 33 124
e 33 129
e 33 130
e 33 131
e 33 137
e 33 142
e 33 146
e 33 149
e 33 150
e 34 36
e 34 39
e 34 42
e 34 45
e 34 51
e 34 62
e 34 65
e 34 67
e 34 68
e 34 72
e 34 76
e 34 77
e 34 79
e 34 80
e 34 81
e 34 83
e 34 88
e 34 92
e 34 94
e 34 99
e 34 100
e 34 102
e 34 108
e 34 111
e 34 114
e 34 120
e 34 125
e 34 126
e 34 129
e 34 133
e 34 137
e 34 150
e 35 36
e 35 41
e 35 47
e 35 48
e 35 50
e 35 56
e 35 57
e 35 59
e 35 62
e 35 63
e 35 68
e 35 71
e 35 77
e 35 85
e 35 90
e 35 96
e 35 98
e 35 102
e 35 106
e 35 107
e 35 109
e 35 110
e 35 113
e 35 116
e 35 123
e 35 128
e 35 129
e 35 135
e 35 136
e 35 140
e 35 142
e 35 145
e 36 45
e 36 47
e 36 48
e 36 49
e 36 50
e 36 54
e 36 55
e 36 58
e 36 61
e 36 65
e 36 68
e 36 69
e 36 70
e 36 75
e 36 78
e 36 82
e 36 87
e 36 90
e 36 99
e 36 103
e 36 104
e 36 105
e 36 106
e 36 107
e 36 110
e 36 112
e 36 113
e 36 116
e 36 120
e 36 122
e 36 123
e 36 127
e 36 130
e 36 133
e 36 137
e 36 139
e 36 141
e 36 146
e 37 38
e 37 44
e 37 48
e 37 49
e 37 53
e 37 54
e 37 55
e 37 56
e 37 57
e 37 59
e 37 68
e 37 69
e 37 71
e 37 77
e 37 84
e 37 91
e 37 93
e 37 95
e 37 96
e 37 97
e 37 101
e 37 103
e 37 104
e 37 109
e 37 115
e 37 117
e 37 119
e 37 123
e 37 124
e 37 127
e 37 128
e 37 132
e 37 137
e 37 142
e 37 143
e 37 148
e 37 149
e 38 42
e 38 46
e 38 47
e 38 54
e 38 60
e 38 62
e 38 65
e 38 72
e 38 75
e 38 80
e 38 83
e 38 86
e 38 88
e 38 89
e 38 90
e 38 93
e 38 101
e 38 104
e 38 106
e 38 112
e 38 113
e 38 116
e 38 119
e 38 123
e 38 131
e 38 132
e 38 138
e 38 147
e 38 148
e 39 40
e 39 42
e 39 50
e 39 51
e 39 53
e 39 60
e 39 62
e 39 63
e 39 65
e 39 66
e 39 67
e 39 73
e 39 81
e 39 90
e 39 94
e 39 95
e 39 96
e 39 100
e 39 106
e 39 107
e 39 109
e 39 110
e 39 115
e 39 119
e 39 122
e 39 126
e 39 127
e 39 131
e 39 134
e 39 141
e 39 142
e 39 143
e 39 144
e 39 145
e 39 148
e 40 41
e 40 42
e 40 43
e 40 45
e 40 48
e 40 54
e 40 55
e 40 57
e 40 58
e 40 62
e 40 64
e 40 66
e 40 68
e 40 72
e 40 76
e 40 77
e 40 83
e 40 85
e 40 86
e 40 88
e 40 91
e 40 93
e 40 96
e 40 99
e 40 102
e 40 104
e 40 108
e 40 109
e 40 112
e 40 116
e 40 117
e 40 134
e 40 135
e 40 137
e 40 145
e 40 150
e 41 42
e 41 44
e 41 52
e 41 54
e 41 55
e 41 61
e 41 66
e 41 70
e 41 72
e 41 74
e 41 76
e 41 80
e 41 85
e 41 87
e 41 88
e 41 91
e 41 92
e 41 94
e 41 96
e 41 97
e 41 101
e 41 104
e 41 106
e 41 107
e 41 109
e 41 112
e 41 114
e 41 115
e 41 121
e 41 123
e 41 129
e 41 131
e 41 134
e 41 135
e 41 138
e 41 140
e 41 150
e 42 50
e 42 53
e 42 57
e 42 60
e 42 61
e 42 65
e 42 66
e 42 74
e 42 77
e 42 78
e 42 79
e 42 81
e 42 82
e 42 88
e 42 93
e 42 95
e 42 96
e 42 112
e 42 113
e 42 114
e 42 116
e 42 118
e 42 127
e 42 128
e 42 132
e 42 137
e 42 150
e 43 48
e 43 50
e 43 52
e 43 54
e 43 58
e 43 60
e 43 61
e 43 65
e 43 67
e 43 68
e 43 81
e 43 84
e 43 85
e 43 87
e 43 89
e 43 92
e 43 93
e 43 94
e 43 95
e 43 96
e 43 98
e 43 107
e 43 114
e 43 116
e 43 118
e 43 123
e 43 126
e 43 132
e 43 135
e 43 140
e 43 142
e 43 146
e 43 147
e 43 148
e 43 149
e 44 50
e 44 51
e 44 52
e 44 55
e 44 56
e 44 59
e 44 60
e 44 61
e 44 64
e 44 66
e 44 67
e 44 73
e 44 74
e 44 75
e 44 76
e 44 81
e 44 87
e 44 89
e 44 97
e 44 100
e 44 103
e 44 107
e 44 109
e 44 115
e 44 116
e 44 119
e 44 121
e 44 125
e 44 129
e 44 134
e 44 137
e 44 141
e 44 146
e 45 46
e 45 49
e 45 52
e 45 56
e 45 60
e 45 61
e 45 62
e 45 64
e 45 66
e 45 68
e 45 69
e 45 71
e 45 82
e 45 85
e 45 86
e 45 89
e 45 90
e 45 92
e 45 95
e 45 96
e 45 97
e 45 107
e 45 108
e 45 111
e 45 112
e 45 113
e 45 120
e 45 121
e 45 122
e 45 132
e 45 140
e 45 141
e 45 142
e 45 148
e 45 150
e 46 49
e 46 51
e 46 53
e 46 56
e 46 57
e 46 59
e 46 61
e 46 63
e 46 72
e 46 73
e 46 75
e 46 78
e 46 80
e 46 81
e 46 83
e 46 84
e 46 85
e 46 89
e 46 95
e 46 97
e 46 98
e 46 102
e 46 110
e 46 111
e 46 114
e 46 120
e 46 123
e 46 124
e 46 131
e 46 132
e 46 135
e 46 138
e 46 144
e 46 146
e 46 150
e 47 51
e 47 53
e 47 56
e 47 70
e 47 71
e 47 76
e 47 78
e 47 84
e 47 86
e 47 87
e 47 91
e 47 97
e 47 99
e 47 101
e 47 108
e 47 110
e 47 113
e 47 114
e 47 120
e 47 124
e 47 125
e 47 128
e 47 136
e 47 137
e 47 140
e 47 149
e 47 150
e 48 49
e 48 52
e 48 53
e 48 61
e 48 63
e 48 64
e 48 65
e 48 66
e 48 67
e 48 78
e 48 79
e 48 82
e 48 90
e 48 93
e 48 95
e 48 98
e 48 103
e 48 105
e 48 106
e 48 108
e 48 109
e 48 110
e 48 115
e 48 122
e 48 126
e 48 131
e 48 133
e 48 138
e 48 149
e 49 53
e 49 56
e 49 63
e 49 69
e 49 71
e 49 72
e 49 75
e 49 77
e 49 80
e 49 86
e 49 88
e 49 90
e 49 93
e 49 97
e 49 98
e 49 99
e 49 101
e 49 103
e 49 106
e 49 107
e 49 108
e 49 111
e 49 120
e 49 121
e 49 133
e 49 134
e 49 137
e 49 139
e 49 140
e 49 146
e 50 58
e 50 62
e 50 65
e 50 69
e 50 73
e 50 74
e 50 75
e 50 76
e 50 79
e 50 80
e 50 87
e 50 90
e 50 95
e 50 96
e 50 99
e 50 101
e 50 102
e 50 106
e 50 108
e 50 109
e 50 111
e 50 112
e 50 113
e 50 115
e 50 117
e 50 118
e 50 119
e 50 123
e 50 124
e 50 126
e 50 127
e 50 137
e 50 143
e 50 149
e 50 150
e 51 54
e 51 55
e 51 74
e 51 77
e 51 80
e 51 81
e 51 93
e 51 94
e 51 95
e 51 96
e 51 99
e 51 101
e 51 103
e 51 106
e 51 108
e 51 109
e 51 110
e 51 113
e 51 115
e 51 116
e 51 118
e 51 124
e 51 130
e 51 138
e 51 139
e 51 143
e 51 144
e 51 145
e 51 148
e 52 54
e 52 56
e 52 60
e 52 64
e 52 65
e 52 73
e 52 80
e 52 85
e 52 86
e 52 87
e 52 88
e 52 89
e 52 100
e 52 101
e 52 107
e 52 114
e 52 116
e 52 118
e 52 119
e 52 131
e 52 132
e 52 145
e 52 146
e 52 148
e 52 149
e 53 56
e 53 58
e 53 59
e 53 62
e 53 65
e 53 69
e 53 70
e 53 73
e 53 76
e 53 77
e 53 83
e 53 86
e 53 90
e 53 91
e 53 98
e 53 101
e 53 113
e 53 114
e 53 115
e 53 119
e 53 124
e 53 125
e 53 128
e 53 129
e 53 133
e 53 139
e 53 140
e 53 147
e 54 58
e 54 62
e 54 64
e 54 65
e 54 68
e 54 71
e 54 74
e 54 75
e 54 77
e 54 80
e 54 81
e 54 82
e 54 83
e 54 89
e 54 90
e 54 91
e 54 95
e 54 105
e 54 110
e 54 114
e 54 115
e 54 116
e 54 117
e 54 119
e 54 120
e 54 128
e 54 129
e 54 132
e 54 137
e 54 140
e 54 141
e 55 57
e 55 58
e 55 59
e 55 62
e 55 82
e 55 94
e 55 98
e 55 100
e 55 112
e 55 116
e 55 119
e 55 120
e 55 124
e 55 126
e 55 128
e 55 129
e 55 130
e 55 137
e 55 142
e 55 143
e 55 145
e 55 147
e 55 149
e 56 57
e 56 58
e 56 61
e 56 68
e 56 71
e 56 72
e 56 75
e 56 78
e 56 80
e 56 81
e 56 84
e 56 86
e 56 87
e 56 92
e 56 94
e 56 98
e 56 105
e 56 109
e 56 110
e 56 113
e 56 115
e 56 117
e 56 118
e 56 122
e 56 125
e 56 129
e 56 130
e 56 132
e 56 136
e 56 137
e 56 144
e 56 146
e 57 59
e 57 60
e 57 66
e 57 70
e 57 71
e 57 79
e 57 83
e 57 87
e 57 88
e 57 90
e 57 91
e 57 109
e 57 114
e 57 118
e 57 124
e 57 128
e 57 130
e 57 131
e 57 133
e 57 138
e 57 141
e 57 143
e 57 144
e 57 146
e 58 63
e 58 64
e 58 72
e 58 78
e 58 79
e 58 80
e 58 84
e 58 85
e 58 89
e 58 95
e 58 98
e 58 102
e 58 103
e 58 104
e 58 105
e 58 107
e 58 108
e 58 109
e 58 110
e 58 123
e 58 128
e 58 130
e 58 132
e 58 136
e 58 137
e 58 139
e 58 140
e 58 144
e 58 146
e 59 60
e 59 61
e 59 63
e 59 65
e 59 73
e 59 77
e 59 80
e 59 82
e 59 84
e 59 86
e 59 88
e 59 91
e 59 94
e 59 97
e 59 100
e 59 105
e 59 106
e 59 108
e 59 110
e 59 120
e 59 125
e 59 130
e 59 135
e 59 141
e 59 148
e 60 61
e 60 62
e 60 63
e 60 65
e 60 69
e 60 78
e 60 79
e 60 80
e 60 84
e 60 89
e 60 92
e 60 94
e 60 96
e 60 99
e 60 103
e 60 111
e 60 126
e 60 138
e 60 141
e 60 142
e 60 145
e 60 147
e 60 150
e 61 65
e 61 69
e 61 73
e 61 75
e 61 78
e 61 81
e 61 86
e 61 87
e 61 89
e 61 91
e 61 92
e 61 94
e 61 104
e 61 106
e 61 111
e 61 114
e 61 115
e 61 116
e 61 120
e 61 128
e 61 135
e 61 136
e 61 137
e 61 138
e 61 145
e 61 147
e 61 149
e 62 63
e 62 64
e 62 67
e 62 68
e 62 70
e 62 71
e 62 80
e 62 81
e 62 82
e 62 84
e 62 86
e 62 87
e 62 91
e 62 92
e 62 97
e 62 98
e 62 102
e 62 104
e 62 109
e 62 111
e 62 113
e 62 114
e 62 120
e 62 123
e 62 132
e 62 137
e 62 139
e 62 146
e 62 149
e 63 70
e 63 71
e 63 81
e 63 89
e 63 94
e 63 96
e 63 98
e 63 101
e 63 102
e 63 103
e 63 105
e 63 112
e 63 113
e 63 123
e 63 127
e 63 130
e 63 134
e 63 138
e 63 139
e 63 140
e 63 143
e 63 144
e 63 146
e 64 66
e 64 72
e 64 74
e 64 75
e 64 76
e 64 85
e 64 86
e 64 92
e 64 97
e 64 100
e 64 105
e 64 107
e 64 108
e 64 110
e 64 111
e 64 118
e 64 121
e 64 126
e 64 128
e 64 129
e 64 135
e 64 138
e 64 142
e 64 143
e 64 146
e 65 66
e 65 75
e 65 77
e 65 79
e 65 82
e 65 83
e 65 90
e 65 91
e 65 94
e 65 98
e 65 102
e 65 105
e 65 110
e 65 113
e 65 115
e 65 116
e 65 118
e 65 125
e 65 126
e 65 127
e 65 130
e 65 131
e 65 132
e 65 134
e 65 138
e 65 140
e 65 141
e 65 144
e 65 147
e 65 150
e 66 67
e 66 72
e 66 76
e 66 77
e 66 79
e 66 80
e 66 82
e 66 96
e 66 97
e 66 100
e 66 108
e 66 113
e 66 120
e 66 124
e 66 128
e 66 129
e 66 130
e 66 134
e 66 137
e 66 138
e 66 139
e 66 142
e 66 143
e 66 144
e 66 146
e 66 149
e 66 150
e 67 70
e 67 71
e 67 74
e 67 75
e 67 82
e 67 84
e 67 91
e 67 93
e 67 95
e 67 96
e 67 97
e 67 100
e 67 101
e 67 103
e 67 104
e 67 105
e 67 107
e 67 113
e 67 114
e 67 117
e 67 118
e 67 119
e 67 121
e 67 125
e 67 127
e 67 129
e 67 136
e 67 138
e 67 140
e 67 147
e 67 148
e 67 149
e 68 69
e 68 71
e 68 79
e 68 80
e 68 82
e 68 84
e 68 85
e 68 86
e 68 91
e 68 96
e 68 102
e 68 103
e 68 107
e 68 109
e 68 123
e 68 125
e 68 127
e 68 131
e 68 135
e 68 136
e 68 138
e 68 140
e 68 141
e 68 142
e 68 143
e 68 147
e 68 149
e 69 70
e 69 74
e 69 77
e 69 82
e 69 85
e 69 92
e 69 94
e 69 95
e 69 99
e 69 102
e 69 104
e 69 107
e 69 114
e 69 117
e 69 118
e 69 126
e 69 131
e 69 132
e 69 138
e 69 141
e 69 142
e 69 143
e 69 144
e 69 145
e 70 72
e 70 73
e 70 78
e 70 79
e 70 81
e 70 82
e 70 83
e 70 87
e 70 92
e 70 93
e 70 97
e 70 99
e 70 106
e 70 107
e 70 112
e 70 113
e 70 114
e 70 120
e 70 122
e 70 125
e 70 126
e 70 127
e 70 129
e 70 135
e 70 136
e 70 137
e 70 146
e 71 73
e 71 76
e 71 77
e 71 81
e 71 83
e 71 84
e 71 85
e 71 86
e 71 90
e 71 91
e 71 92
e 71 95
e 71 96
e 71 102
e 71 104
e 71 109
e 71 110
e 71 111
e 71 113
e 71 114
e 71 116
e 71 119
e 71 120
e 71 121
e 71 123
e 71 126
e 71 138
e 71 142
e 71 143
e 71 146
e 71 147
e 72 73
e 72 93
e 72 100
e 72 104
e 72 107
e 72 110
e 72 111
e 72 121
e 72 133
e 72 138
e 72 141
e 72 145
e 73 77
e 73 78
e 73 79
e 73 81
e 73 82
e 73 83
e 73 85
e 73 86
e 73 89
e 73 90
e 73 94
e 73 95
e 73 101
e 73 103
e 73 107
e 73 109
e 73 112
e 73 115
e 73 116
e 73 120
e 73 121
e 73 122
e 73 123
e 73 124
e 73 129
e 73 146
e 73 148
e 73 150
e 74 81
e 74 93
e 74 98
e 74 105
e 74 106
e 74 107
e 74 113
e 74 114
e 74 115
e 74 117
e 74 120
e 74 125
e 74 134
e 74 135
e 74 138
e 74 143
e 74 144
e 74 146
e 74 149
e 75 78
e 75 79
e 75 80
e 75 86
e 75 88
e 75 89
e 75 95
e 75 96
e 75 97
e 75 101
e 75 102
e 75 112
e 75 114
e 75 115
e 75 116
e 75 117
e 75 123
e 75 124
e 75 126
e 75 128
e 75 133
e 75 134
e 75 139
e 75 140
e 75 141
e 75 142
e 75 143
e 75 144
e 75 145
e 75 146
e 75 147
e 76 77
e 76 78
e 76 80
e 76 85
e 76 86
e 76 88
e 76 90
e 76 93
e 76 96
e 76 101
e 76 107
e 76 109
e 76 114
e 76 117
e 76 123
e 76 129
e 76 135
e 76 141
e 76 147
e 77 78
e 77 79
e 77 80
e 77 81
e 77 83
e 77 84
e 77 85
e 77 95
e 77 96
e 77 97
e 77 102
e 77 112
e 77 113
e 77 114
e 77 118
e 77 120
e 77 122
e 77 125
e 77 126
e 77 127
e 77 132
e 77 137
e 77 140
e 77 141
e 78 80
e 78 81
e 78 82
e 78 85
e 78 90
e 78 91
e 78 92
e 78 94
e 78 99
e 78 102
e 78 104
e 78 106
e 78 108
e 78 109
e 78 114
e 78 116
e 78 118
e 78 122
e 78 129
e 78 133
e 78 136
e 78 143
e 78 148
e 78 150
e 79 80
e 79 83
e 79 85
e 79 87
e 79 88
e 79 89
e 79 90
e 79 92
e 79 96
e 79 98
e 79 114
e 79 115
e 79 118
e 79 121
e 79 129
e 79 138
e 79 139
e 79 141
e 79 144
e 79 145
e 79 147
e 79 148
e 80 84
e 80 87
e 80 90
e 80 93
e 80 94
e 80 95
e 80 99
e 80 104
e 80 107
e 80 110
e 80 111
e 80 112
e 80 125
e 80 127
e 80 145
e 80 150
e 81 82
e 81 84
e 81 86
e 81 87
e 81 89
e 81 91
e 81 96
e 81 103
e 81 104
e 81 114
e 81 115
e 81 117
e 81 118
e 81 121
e 81 122
e 81 123
e 81 127
e 81 128
e 81 133
e 81 134
e 81 135
e 81 136
e 81 139
e 81 140
e 81 141
e 81 143
e 82 84
e 82 85
e 82 86
e 82 89
e 82 92
e 82 94
e 82 95
e 82 100
e 82 112
e 82 118
e 82 120
e 82 121
e 82 122
e 82 127
e 82 133
e 82 135
e 82 137
e 82 138
e 82 140
e 82 141
e 82 142
e 82 143
e 82 147
e 82 150
e 83 85
e 83 92
e 83 93
e 83 99
e 83 105
e 83 106
e 83 110
e 83 119
e 83 120
e 83 121
e 83 122
e 83 126
e 83 127
e 83 128
e 83 131
e 83 132
e 83 133
e 83 138
e 83 145
e 83 146
e 84 88
e 84 91
e 84 93
e 84 94
e 84 96
e 84 98
e 84 99
e 84 103
e 84 104
e 84 106
e 84 110
e 84 113
e 84 120
e 84 121
e 84 122
e 84 123
e 84 127
e 84 134
e 84 136
e 84 139
e 84 140
e 84 142
e 84 143
e 84 148
e 84 149
e 84 150
e 85 87
e 85 89
e 85 94
e 85 98
e 85 100
e 85 101
e 85 102
e 85 106
e 85 108
e 85 115
e 85 122
e 85 130
e 85 131
e 85 136
e 85 141
e 85 144
e 85 147
e 86 93
e 86 96
e 86 98
e 86 102
e 86 104
e 86 105
e 86 107
e 86 118
e 86 120
e 86 123
e 86 124
e 86 126
e 86 127
e 86 128
e 86 132
e 86 133
e 86 134
e 86 137
e 86 138
e 86 139
e 86 145
e 86 147
e 86 148
e 86 149
e 86 150
e 87 94
e 87 97
e 87 106
e 87 110
e 87 118
e 87 119
e 87 121
e 87 123
e 87 124
e 87 133
e 87 139
e 87 143
e 87 144
e 87 146
e 88 91
e 88 93
e 88 103
e 88 104
e 88 110
e 88 115
e 88 122
e 88 123
e 88 124
e 88 130
e 88 133
e 88 139
e 88 140
e 88 142
e 88 143
e 88 149
e 88 150
e 89 90
e 89 92
e 89 93
e 89 94
e 89 95
e 89 98
e 89 101
e 89 102
e 89 103
e 89 107
e 89 110
e 89 112
e 89 113
e 89 114
e 89 117
e 89 122
e 89 125
e 89 126
e 89 129
e 89 138
e 89 140
e 89 142
e 90 96
e 90 99
e 90 103
e 90 109
e 90 111
e 90 114
e 90 118
e 90 127
e 90 129
e 90 137
e 90 140
e 90 141
e 90 146
e 90 149
e 90 150
e 91 92
e 91 95
e 91 97
e 91 102
e 91 104
e 91 105
e 91 108
e 91 116
e 91 117
e 91 119
e 91 122
e 91 123
e 91 128
e 91 129
e 91 130
e 91 133
e 91 134
e 91 136
e 91 137
e 91 139
e 91 140
e 91 142
e 91 147
e 91 149
e 91 150
e 92 98
e 92 100
e 92 101
e 92 103
e 92 104
e 92 106
e 92 107
e 92 108
e 92 111
e 92 112
e 92 113
e 92 114
e 92 125
e 92 131
e 92 133
e 92 134
e 92 137
e 92 140
e 92 142
e 92 145
e 92 149
e 93 99
e 93 106
e 93 108
e 93 113
e 93 114
e 93 116
e 93 118
e 93 120
e 93 124
e 93 126
e 93 128
e 93 130
e 93 134
e 93 136
e 93 138
e 93 139
e 93 140
e 93 143
e 93 144
e 93 145
e 94 96
e 94 97
e 94 99
e 94 100
e 94 102
e 94 104
e 94 108
e 94 110
e 94 113
e 94 114
e 94 118
e 94 122
e 94 128
e 94 135
e 94 137
e 94 141
e 94 142
e 94 144
e 94 146
e 94 149
e 95 102
e 95 105
e 95 109
e 95 111
e 95 112
e 95 116
e 95 118
e 95 121
e 95 124
e 95 125
e 95 126
e 95 130
e 95 131
e 95 135
e 95 138
e 95 139
e 95 140
e 95 141
e 95 145
e 95 148
e 96 102
e 96 103
e 96 104
e 96 106
e 96 111
e 96 126
e 96 127
e 96 129
e 96 131
e 96 133
e 96 134
e 96 139
e 96 142
e 96 143
e 96 144
e 96 145
e 96 148
e 96 149
e 97 98
e 97 107
e 97 109
e 97 110
e 97 111
e 97 115
e 97 116
e 97 117
e 97 120
e 97 125
e 97 127
e 97 129
e 97 132
e 97 133
e 97 134
e 97 137
e 97 142
e 98 104
e 98 105
e 98 109
e 98 118
e 98 119
e 98 122
e 98 123
e 98 124
e 98 126
e 98 130
e 98 131
e 98 134
e 98 135
e 98 136
e 98 147
e 99 100
e 99 124
e 99 131
e 99 132
e 99 136
e 99 137
e 99 140
e 99 145
e 99 147
e 99 148
e 100 101
e 100 118
e 100 126
e 100 129
e 100 133
e 100 138
e 100 139
e 100 143
e 100 146
e 100 147
e 100 148
e 100 149
e 101 105
e 101 106
e 101 109
e 101 110
e 101 113
e 101 116
e 101 120
e 101 123
e 101 127
e 101 129
e 101 130
e 101 136
e 101 142
e 101 144
e 101 147
e 101 150
e 102 119
e 102 120
e 102 121
e 102 125
e 102 129
e 102 138
e 102 141
e 102 148
e 102 150
e 103 109
e 103 113
e 103 114
e 103 115
e 103 116
e 103 118
e 103 119
e 103 124
e 103 125
e 103 130
e 103 138
e 103 143
e 103 145
e 103 146
e 103 149
e 104 108
e 104 109
e 104 117
e 104 118
e 104 119
e 104 120
e 104 121
e 104 127
e 104 130
e 104 131
e 104 140
e 104 146
e 104 149
e 104 150
e 105 112
e 105 114
e 105 122
e 105 126
e 105 135
e 105 137
e 105 139
e 105 142
e 105 143
e 105 144
e 105 147
e 106 108
e 106 112
e 106 117
e 106 120
e 106 121
e 106 125
e 106 129
e 106 132
e 106 133
e 106 135
e 106 137
e 106 142
e 107 108
e 107 113
e 107 114
e 107 115
e 107 128
e 107 133
e 107 137
e 107 143
e 107 146
e 107 149
e 108 109
e 108 111
e 108 117
e 108 120
e 108 121
e 108 123
e 108 129
e 108 131
e 108 139
e 108 141
e 108 143
e 108 149
e 109 111
e 109 112
e 109 117
e 109 118
e 109 123
e 109 125
e 109 128
e 109 129
e 109 130
e 109 131
e 109 133
e 109 139
e 109 144
e 109 145
e 109 146
e 109 149
e 110 111
e 110 112
e 110 113
e 110 114
e 110 116
e 110 118
e 110 122
e 110 125
e 110 134
e 110 136
e 110 140
e 110 144
e 110 146
e 110 148
e 111 112
e 111 113
e 111 119
e 111 120
e 111 136
e 111 140
e 111 142
e 111 145
e 111 147
e 111 148
e 111 149
e 112 116
e 112 117
e 112 118
e 112 121
e 112 123
e 112 126
e 112 130
e 112 132
e 112 137
e 112 144
e 112 146
e 112 147
e 112 148
e 112 149
e 112 150
e 113 115
e 113 118
e 113 119
e 113 128
e 113 131
e 113 140
e 113 141
e 113 144
e 113 147
e 113 148
e 113 150
e 114 116
e 114 119
e 114 120
e 114 122
e 114 125
e 114 128
e 114 132
e 114 137
e 114 139
e 114 141
e 114 142
e 114 144
e 114 145
e 115 117
e 115 118
e 115 120
e 115 123
e 115 126
e 115 128
e 115 147
e 115 150
e 116 117
e 116 118
e 116 119
e 116 120
e 116 122
e 116 123
e 116 129
e 116 130
e 116 132
e 116 133
e 116 136
e 116 139
e 116 140
e 116 141
e 116 144
e 116 146
e 116 148
e 117 120
e 117 126
e 117 129
e 117 131
e 117 138
e 117 140
e 117 141
e 117 142
e 117 143
e 117 147
e 117 150
e 118 123
e 118 124
e 118 125
e 118 139
e 119 120
e 119 123
e 119 127
e 119 131
e 119 136
e 119 137
e 119 141
e 119 143
e 119 146
e 119 150
e 120 123
e 120 129
e 120 130
e 120 134
e 120 135
e 120 137
e 120 141
e 120 142
e 120 148
e 120 150
e 121 122
e 121 125
e 121 126
e 121 129
e 121 132
e 121 134
e 121 141
e 121 142
e 121 144
e 121 146
e 121 150
e 122 130
e 122 132
e 122 133
e 122 140
e 122 145
e 122 148
e 122 150
e 123 124
e 123 126
e 123 127
e 123 129
e 123 133
e 123 136
e 123 139
e 123 140
e 123 143
e 124 126
e 124 129
e 124 133
e 124 136
e 124 137
e 124 138
e 124 146
e 124 149
e 125 126
e 125 133
e 125 135
e 125 138
e 125 148
e 126 129
e 126 131
e 126 132
e 126 133
e 126 134
e 126 135
e 126 148
e 127 132
e 127 133
e 127 136
e 127 142
e 127 144
e 127 146
e 127 150
e 128 130
e 128 137
e 128 140
e 128 145
e 129 130
e 129 135
e 129 141
e 129 142
e 129 146
e 129 149
e 129 150
e 130 131
e 130 135
e 130 141
e 130 144
e 130 150
e 131 132
e 131 141
e 131 147
e 131 148
e 131 149
e 132 135
e 132 136
e 132 137
e 132 142
e 132 144
e 132 146
e 133 135
e 133 142
e 133 146
e 133 150
e 134 135
e 134 137
e 134 139
e 134 141
e 134 149
e 135 140
e 135 143
e 135 150
e 136 138
e 136 148
e 136 149
e 136 150
e 137 145
e 137 147
e 138 140
e 138 149
e 138 150
e 139 141
e 139 143
e 139 144
e 139 146
e 139 147
e 139 149
e 140 145
e 140 147
e 140 150
e 141 149
e 142 148
e 142 149
e 143 147
e 143 150
e 144 146
e 144 147
e 144 148
e 144 149
e 144 150
e 145 146
e 146 147
e 146 148
e 146 149
e 147 150
e 148 150
